Instance Name : r201
Date : 2022-07-18
Solution
Route 1 : 27 28 72 39 67 23 75 73 40 53 87 57 41 22 56 54 26 74 4 55 25 24 80
Route 2 : 95 59 92 14 42 15 2 21 12 29 76 30 71 9 51 81 79 78 34 3 50 20 10 32 66 35 68 77 1 70
Route 3 : 5 83 45 82 47 36 64 11 19 7 88 90 18 84 8 49 46 48 17 93 60 89
Route 4 : 33 65 63 62 31 69 52 98 61 16 44 38 86 85 99 94 6 96 97 37 43 91 100 13 58
